% ----DATA VARIABLES----

t=15;%number of attributes
k=6;%max length of the support set
n=40;%number of positive instances
m=40;%number of negative instances
c=5;%number of atMostOne Constraints

% ----OMEGAS----

omegap= [| 0, 1, 0, 0, 0, 0, 1, 1, 1, 1, 1, 1, 0, 0, 0|
 1, 1, 0, 0, 0, 0, 0, 1, 0, 1, 0, 0, 0, 1, 1|
 0, 0, 1, 1, 1, 1, 0, 1, 0, 1, 0, 0, 0, 1, 1|
 0, 1, 0, 0, 0, 0, 1, 1, 0, 1, 1, 1, 0, 1, 1|
 1, 0, 0, 1, 0, 1, 1, 1, 1, 1, 1, 1, 0, 1, 1|
 1, 1, 1, 1, 0, 1, 0, 0, 0, 1, 1, 0, 0, 1, 1|
 1, 1, 0, 1, 1, 1, 0, 1, 0, 1, 0, 0, 1, 1, 1|
 0, 1, 1, 1, 0, 1, 0, 0, 1, 0, 1, 1, 0, 0, 0|
 0, 1, 1, 1, 0, 0, 0, 0, 1, 1, 0, 0, 1, 0, 1|
 1, 1, 1, 0, 0, 1, 0, 0, 0, 1, 1, 1, 1, 0, 1|
 1, 1, 0, 1, 0, 0, 0, 0, 1, 0, 1, 1, 1, 0, 1|
 1, 0, 1, 0, 1, 0, 1, 1, 0, 1, 0, 1, 0, 1, 1|
 0, 0, 0, 0, 1, 0, 0, 0, 1, 0, 1, 0, 0, 1, 0|
 0, 0, 1, 0, 1, 0, 1, 0, 0, 1, 0, 0, 0, 1, 1|
 1, 0, 1, 1, 1, 1, 0, 0, 0, 1, 0, 1, 0, 0, 0|
 0, 1, 1, 0, 1, 1, 1, 0, 0, 1, 0, 1, 1, 0, 0|
 1, 0, 0, 1, 0, 1, 1, 0, 0, 1, 1, 0, 1, 1, 0|
 1, 1, 1, 1, 0, 1, 1, 1, 0, 1, 0, 0, 1, 0, 1|
 1, 1, 1, 0, 0, 0, 1, 0, 0, 0, 1, 1, 0, 0, 0|
 1, 1, 0, 1, 1, 0, 1, 1, 0, 1, 1, 1, 0, 0, 0|
 0, 1, 0, 0, 0, 1, 1, 1, 1, 0, 0, 1, 1, 1, 1|
 1, 0, 1, 0, 1, 0, 1, 1, 1, 1, 1, 1, 0, 0, 1|
 0, 0, 0, 0, 1, 0, 1, 1, 1, 1, 0, 1, 1, 0, 1|
 1, 1, 0, 0, 1, 0, 0, 1, 1, 0, 0, 0, 0, 1, 1|
 1, 1, 1, 1, 0, 1, 0, 1, 0, 1, 0, 0, 1, 0, 1|
 1, 1, 1, 0, 0, 0, 0, 1, 0, 0, 1, 1, 1, 1, 1|
 1, 1, 1, 1, 0, 0, 1, 0, 1, 0, 0, 1, 1, 1, 0|
 1, 1, 0, 1, 1, 1, 0, 1, 0, 1, 1, 0, 0, 0, 1|
 0, 0, 0, 0, 0, 0, 1, 1, 0, 1, 0, 1, 1, 0, 0|
 0, 1, 0, 0, 0, 1, 1, 0, 0, 1, 1, 1, 1, 0, 0|
 1, 1, 1, 0, 1, 1, 0, 0, 0, 0, 0, 1, 1, 0, 0|
 0, 1, 1, 1, 1, 0, 1, 1, 0, 0, 1, 1, 0, 1, 0|
 0, 0, 1, 0, 0, 1, 1, 0, 0, 1, 1, 1, 0, 1, 0|
 1, 1, 0, 0, 0, 0, 0, 1, 0, 0, 0, 0, 1, 1, 1|
 1, 1, 1, 0, 0, 1, 0, 1, 1, 0, 0, 0, 0, 1, 1|
 0, 0, 1, 0, 0, 1, 0, 1, 1, 0, 0, 1, 1, 1, 0|
 1, 0, 0, 0, 1, 0, 0, 1, 1, 0, 1, 0, 1, 1, 0|
 0, 1, 1, 0, 1, 1, 1, 0, 0, 0, 0, 0, 0, 0, 1|
 1, 0, 0, 1, 0, 0, 1, 0, 0, 0, 1, 0, 1, 0, 0|
 1, 1, 0, 1, 1, 0, 0, 1, 0, 0, 1, 1, 1, 0, 1|];

omegan= [| 0, 0, 1, 0, 0, 0, 1, 1, 0, 0, 1, 0, 1, 1, 0|
 0, 0, 1, 1, 1, 1, 1, 0, 0, 1, 0, 0, 0, 1, 1|
 1, 1, 0, 0, 0, 1, 1, 0, 0, 0, 1, 1, 0, 0, 0|
 1, 1, 1, 1, 0, 0, 1, 1, 1, 1, 1, 1, 1, 0, 1|
 0, 0, 1, 0, 1, 0, 1, 0, 0, 1, 0, 1, 0, 0, 0|
 1, 0, 0, 1, 0, 1, 0, 1, 1, 1, 0, 1, 0, 1, 1|
 0, 1, 1, 0, 1, 0, 1, 0, 1, 0, 1, 0, 0, 1, 0|
 0, 1, 1, 1, 1, 1, 0, 0, 1, 1, 0, 0, 1, 1, 0|
 1, 1, 1, 1, 0, 1, 1, 0, 1, 1, 0, 1, 0, 1, 0|
 1, 1, 1, 0, 0, 1, 1, 0, 0, 0, 1, 1, 1, 0, 1|
 0, 0, 0, 1, 0, 0, 1, 0, 1, 1, 0, 0, 0, 1, 0|
 0, 0, 1, 0, 0, 1, 1, 1, 0, 1, 0, 1, 0, 1, 1|
 0, 0, 0, 1, 1, 1, 0, 0, 1, 0, 0, 0, 1, 0, 0|
 1, 0, 0, 1, 0, 1, 0, 1, 1, 1, 1, 0, 1, 1, 1|
 0, 0, 1, 0, 1, 1, 1, 0, 1, 0, 0, 1, 1, 0, 0|
 0, 0, 0, 1, 1, 0, 0, 1, 0, 1, 0, 0, 1, 1, 1|
 1, 0, 1, 0, 1, 1, 0, 0, 0, 0, 1, 1, 1, 1, 0|
 1, 0, 0, 0, 1, 0, 1, 1, 0, 0, 1, 1, 1, 0, 1|
 0, 0, 1, 1, 0, 1, 0, 1, 0, 0, 1, 0, 0, 0, 0|
 1, 1, 0, 0, 1, 0, 0, 1, 1, 0, 1, 0, 1, 0, 1|
 0, 1, 1, 0, 0, 0, 1, 1, 0, 1, 1, 1, 1, 1, 1|
 1, 1, 1, 0, 0, 0, 1, 0, 0, 1, 1, 0, 1, 1, 1|
 0, 0, 1, 0, 0, 1, 0, 1, 1, 1, 0, 1, 0, 0, 0|
 1, 0, 0, 1, 1, 1, 0, 0, 0, 0, 0, 0, 0, 1, 1|
 0, 1, 0, 0, 0, 1, 1, 1, 0, 1, 0, 1, 0, 0, 1|
 1, 1, 0, 1, 0, 0, 1, 1, 0, 1, 0, 1, 0, 1, 0|
 0, 1, 1, 0, 0, 1, 0, 1, 0, 1, 0, 0, 1, 1, 1|
 0, 1, 0, 0, 1, 0, 0, 0, 1, 0, 1, 1, 1, 0, 0|
 0, 1, 0, 1, 0, 0, 1, 1, 1, 0, 0, 0, 1, 1, 0|
 1, 1, 0, 0, 1, 1, 1, 1, 1, 0, 1, 0, 0, 0, 1|
 1, 0, 1, 0, 0, 1, 1, 1, 1, 1, 1, 1, 1, 0, 0|
 1, 0, 1, 1, 1, 1, 0, 1, 1, 1, 1, 1, 1, 0, 1|
 1, 1, 1, 0, 0, 0, 1, 0, 0, 1, 0, 0, 1, 1, 1|
 1, 1, 0, 0, 0, 1, 1, 1, 0, 1, 1, 0, 1, 1, 1|
 1, 1, 1, 1, 0, 0, 1, 0, 0, 0, 0, 0, 0, 1, 1|
 1, 1, 0, 1, 0, 1, 0, 1, 1, 0, 0, 0, 1, 1, 0|
 0, 0, 1, 1, 1, 1, 1, 0, 0, 1, 1, 0, 0, 0, 1|
 1, 0, 0, 0, 0, 1, 1, 0, 1, 0, 1, 1, 1, 1, 1|
 1, 1, 1, 1, 0, 1, 0, 0, 0, 1, 0, 1, 1, 1, 0|
 0, 1, 1, 0, 1, 1, 1, 1, 1, 0, 1, 0, 0, 0, 0|];

% ----CONSTRAINS----

atMostOne=[{13}, {7, 8, 9, 3}, {10, 10}, {10, 6}, {14, 13, 5, 6, 14}];